rows = 5;
columns = 9;
steps = 12;
board = array2d(1..rows, 1..columns, 
[
  2, 0, 0, 0, 0, 0, 0, 0, 0,
  0, 3, 0, 0, 1, 0, 0, 2, 0,
  0, 0, 0, 0, 0, 0, -1, 0, 2,
  0, 0, 2, -1, 0, 0, 0, 0, 0,
  0, 0, 0, 0, 2, 0, 0, 1, 0,
]);
